p tw 34 37
1 2
2 13
3 4
4 5
5 6
6 7
6 8
7 27
8 9
9 10
10 11
11 12
12 14
12 22
13 24
13 30
14 15
15 16
16 17
17 18
18 19
18 8
19 20
20 21
21 27
22 23
23 25
24 29
25 26
26 27
27 28
29 27
30 31
31 32
32 33
33 34
34 3
